data/mip_solutions/furman_sahinidis/reduced_transportation/15sp-tkm_gurobi.sol
Elapsed time: 0.197571992874
Nodes explored: 108
Upper bound: 19.0
Lower bound: 19.0
y[0,0]=1
y[1,0]=1
y[2,1]=1
y[2,3]=1
y[2,4]=1
y[3,4]=1
y[4,4]=1
y[5,4]=1
y[6,0]=1
y[6,3]=1
y[6,4]=1
y[7,0]=1
y[7,4]=1
y[7,5]=1
y[8,5]=1
y[8,6]=1
y[9,0]=1
y[9,2]=1
y[9,4]=1
q[0,1,0,3]=10.6
q[0,2,0,4]=127.2
q[0,3,0,8]=31.8
q[0,4,0,8]=100.7
q[0,5,0,6]=31.8
q[0,6,0,6]=21.2
q[0,7,0,7]=5.3
q[0,8,0,8]=47.7
q[0,9,0,9]=5.3
q[0,9,3,10]=3.41060513165e-13
q[0,9,4,9]=3.59712259979e-13
q[0,10,0,10]=53.0
q[0,11,0,11]=37.1
q[0,12,0,13]=58.3
q[0,12,6,14]=3.97903932026e-13
q[0,13,0,13]=121.9
q[1,2,0,2]=403.2
q[1,3,0,3]=100.8
q[1,4,0,4]=319.2
q[1,5,0,5]=100.8
q[1,6,0,6]=15.9
q[1,6,0,7]=51.3
q[1,7,0,8]=16.8
q[1,8,0,8]=151.2
q[2,3,1,3]=540.5
q[2,3,1,4]=2053.9
q[2,3,3,4]=165.6
q[2,3,3,5]=110.4
q[2,3,3,6]=73.6
q[2,3,3,7]=18.4
q[2,3,3,8]=165.6
q[2,3,4,8]=199.0
q[3,4,4,6]=1120.4
q[3,4,4,7]=145.5
q[3,4,4,8]=88.1
q[4,7,3,7]=1.09352527033e-11
q[4,7,4,7]=134.6
q[4,8,4,8]=1211.4
q[5,8,4,8]=928.0
q[6,9,0,9]=51.3
q[6,9,0,12]=177.4
q[6,9,3,9]=18.4
q[6,9,3,10]=184.0
q[6,9,3,11]=128.8
q[6,9,4,9]=280.1
q[6,9,5,12]=-9.01593652377e-11
q[6,9,5,13]=1.72803993337e-10
q[7,10,0,10]=513.0
q[7,10,0,11]=359.1
q[7,10,0,12]=445.2
q[7,10,0,13]=1121.6
q[7,10,4,10]=2801.0
q[7,10,5,11]=2198.0
q[7,10,5,12]=3454.0
q[7,10,5,13]=1108.1
q[8,13,5,13]=6113.9
q[8,13,6,14]=1338.1
q[9,0,0,2]=219.4
q[9,0,0,3]=228.2
q[9,0,0,4]=629.0
q[9,0,0,5]=238.8
q[9,0,0,6]=157.5
q[9,0,0,8]=161.2
q[9,0,2,4]=2870.0
q[9,0,2,5]=1230.0
q[9,0,4,8]=94.4
